%nprocshared=4
%mem=16GB
%chk=CO2_Opt_Freq.chk
# opt freq b3lyp 6-31g(d)

CO2_Opt_Freq

0 1
 C                 -0.77181209    0.26845637    0.00000000
 O                 -1.64142110    0.57708343   -1.12536733
 O                 -0.68233056    0.63720644    1.09029728

