%nprocshared=4
%mem=16GB
%chk=N2_Opt_Freq.chk
# opt freq b3lyp 6-31g(d)

N2_Opt_Freq

0 1
 N                 -1.01592761    3.65899373    1.25484694
 N                 -2.10792761    3.65899373    1.25484694



