%nprocshared=32
%mem=1GB
%chk=01Cyclohexane_Boat_B3LYP_CYH.chk
# opt freq B3LYP/6-31+G** scrf=(SMD, solvent=Cyclohexane)

01Cyclohexane_Boat_B3LYP_CYH

0 1
 C                 -2.86642409   -1.30197886    0.00000000
 C                 -1.34953409   -1.30197886    0.00000000
 C                 -0.77181209    0.10067114    0.00000000
 C                 -1.68469909    1.08130814    0.70521200
 C                 -3.02343209    1.20223714    0.00164600
 C                 -3.42762109   -0.08193086   -0.69809900
 H                  0.23208891    0.09390314    0.49858600
 H                 -0.98489109   -1.86081386    0.90147200
 H                 -0.97129609   -1.85206186   -0.90137200
 H                 -3.05648009   -0.06460886   -1.75686600
 H                 -3.24032009   -1.32202286    1.05781200
 H                 -1.84566109    0.73706314    1.76082100
 H                 -1.19301509    2.08732914    0.75404800
 H                 -2.98025509    2.03052714   -0.75327300
 H                 -3.80583309    1.48527314    0.75367200
 H                 -4.54561309   -0.15176186   -0.73822700
 H                 -3.24225309   -2.23041086   -0.50329800
 H                 -0.61585209    0.44198214   -1.05740600



